Route #1: 1 34 13 28 6 39 38 1
Route #2: 1 4 20 41 36 33 25 18 1
Route #3: 1 40 29 12 3 5 27 30 22 10 1
Route #4: 1 32 14 23 2 19 9 1
Route #5: 1 24 37 7 8 15 21 35 1
Route #6: 1 31 11 17 16 26 1
cost 2371.1748099029514